p cnf 257 1591
-1 -244  0
-1 -248  0
-1 -247  0
-1 -242  0
1 242 244 247 248  0
-2 244  0
-2 -248  0
-2 -247  0
-2 -242  0
2 242 -244 247 248  0
-110 -244  0
-110 248  0
-110 -247  0
-110 -242  0
110 242 244 247 -248  0
-166 244  0
-166 248  0
-166 -247  0
-166 -242  0
166 242 -244 247 -248  0
-176 -244  0
-176 -248  0
-176 247  0
-176 -242  0
176 242 244 -247 248  0
-187 244  0
-187 -248  0
-187 247  0
-187 -242  0
187 242 -244 -247 248  0
-198 -244  0
-198 248  0
-198 247  0
-198 -242  0
198 242 244 -247 -248  0
-209 244  0
-209 248  0
-209 247  0
-209 -242  0
209 242 -244 -247 -248  0
-220 -244  0
-220 -248  0
-220 -247  0
-220 242  0
220 -242 244 247 248  0
-231 244  0
-231 -248  0
-231 -247  0
-231 242  0
231 -242 -244 247 248  0
-3 -244  0
-3 248  0
-3 -247  0
-3 242  0
3 -242 244 247 -248  0
-14 244  0
-14 248  0
-14 -247  0
-14 242  0
14 -242 -244 247 -248  0
-25 -244  0
-25 -248  0
-25 247  0
-25 242  0
25 -242 244 -247 248  0
-36 244  0
-36 -248  0
-36 247  0
-36 242  0
36 -242 -244 -247 248  0
-47 -244  0
-47 248  0
-47 247  0
-47 242  0
47 -242 244 -247 -248  0
-58 244  0
-58 248  0
-58 247  0
-58 242  0
58 -242 -244 -247 -248  0
1 2 3 14 25 36 47 58 110 166 176 187 198 209 220 231  0
-78 -242  0
-78 -247  0
-78 -251  0
-78 -250  0
78 242 247 250 251  0
-89 242  0
-89 -247  0
-89 -251  0
-89 -250  0
89 -242 247 250 251  0
-99 -242  0
-99 247  0
-99 -251  0
-99 -250  0
99 242 -247 250 251  0
-111 242  0
-111 247  0
-111 -251  0
-111 -250  0
111 -242 -247 250 251  0
-122 -242  0
-122 -247  0
-122 251  0
-122 -250  0
122 242 247 250 -251  0
-133 242  0
-133 -247  0
-133 251  0
-133 -250  0
133 -242 247 250 -251  0
-144 -242  0
-144 247  0
-144 251  0
-144 -250  0
144 242 -247 250 -251  0
-155 242  0
-155 247  0
-155 251  0
-155 -250  0
155 -242 -247 250 -251  0
-161 -242  0
-161 -247  0
-161 -251  0
-161 250  0
161 242 247 -250 251  0
-162 242  0
-162 -247  0
-162 -251  0
-162 250  0
162 -242 247 -250 251  0
-163 -242  0
-163 247  0
-163 -251  0
-163 250  0
163 242 -247 -250 251  0
-164 242  0
-164 247  0
-164 -251  0
-164 250  0
164 -242 -247 -250 251  0
-165 -242  0
-165 -247  0
-165 251  0
-165 250  0
165 242 247 -250 -251  0
-167 242  0
-167 -247  0
-167 251  0
-167 250  0
167 -242 247 -250 -251  0
-168 -242  0
-168 247  0
-168 251  0
-168 250  0
168 242 -247 -250 -251  0
-169 242  0
-169 247  0
-169 251  0
-169 250  0
169 -242 -247 -250 -251  0
78 89 99 111 122 133 144 155 161 162 163 164 165 167 168 169  0
-170 -242  0
-170 -243  0
-170 -248  0
-170 -252  0
-170 -251  0
-170 -246  0
170 242 243 246 248 251 252  0
-171 242  0
-171 -243  0
-171 -248  0
-171 -252  0
-171 -251  0
-171 -246  0
171 -242 243 246 248 251 252  0
-172 -242  0
-172 243  0
-172 -248  0
-172 -252  0
-172 -251  0
-172 -246  0
172 242 -243 246 248 251 252  0
-173 242  0
-173 243  0
-173 -248  0
-173 -252  0
-173 -251  0
-173 -246  0
173 -242 -243 246 248 251 252  0
-174 -242  0
-174 -243  0
-174 248  0
-174 -252  0
-174 -251  0
-174 -246  0
174 242 243 246 -248 251 252  0
-175 242  0
-175 -243  0
-175 248  0
-175 -252  0
-175 -251  0
-175 -246  0
175 -242 243 246 -248 251 252  0
-177 -242  0
-177 243  0
-177 248  0
-177 -252  0
-177 -251  0
-177 -246  0
177 242 -243 246 -248 251 252  0
-178 242  0
-178 243  0
-178 248  0
-178 -252  0
-178 -251  0
-178 -246  0
178 -242 -243 246 -248 251 252  0
-179 -242  0
-179 -243  0
-179 -248  0
-179 252  0
-179 -251  0
-179 -246  0
179 242 243 246 248 251 -252  0
-180 242  0
-180 -243  0
-180 -248  0
-180 252  0
-180 -251  0
-180 -246  0
180 -242 243 246 248 251 -252  0
-181 -242  0
-181 243  0
-181 -248  0
-181 252  0
-181 -251  0
-181 -246  0
181 242 -243 246 248 251 -252  0
-182 242  0
-182 243  0
-182 -248  0
-182 252  0
-182 -251  0
-182 -246  0
182 -242 -243 246 248 251 -252  0
-183 -242  0
-183 -243  0
-183 248  0
-183 252  0
-183 -251  0
-183 -246  0
183 242 243 246 -248 251 -252  0
-184 242  0
-184 -243  0
-184 248  0
-184 252  0
-184 -251  0
-184 -246  0
184 -242 243 246 -248 251 -252  0
-185 -242  0
-185 243  0
-185 248  0
-185 252  0
-185 -251  0
-185 -246  0
185 242 -243 246 -248 251 -252  0
-186 242  0
-186 243  0
-186 248  0
-186 252  0
-186 -251  0
-186 -246  0
186 -242 -243 246 -248 251 -252  0
-188 -242  0
-188 -243  0
-188 -248  0
-188 -252  0
-188 251  0
-188 -246  0
188 242 243 246 248 -251 252  0
-189 242  0
-189 -243  0
-189 -248  0
-189 -252  0
-189 251  0
-189 -246  0
189 -242 243 246 248 -251 252  0
-190 -242  0
-190 243  0
-190 -248  0
-190 -252  0
-190 251  0
-190 -246  0
190 242 -243 246 248 -251 252  0
-191 242  0
-191 243  0
-191 -248  0
-191 -252  0
-191 251  0
-191 -246  0
191 -242 -243 246 248 -251 252  0
-192 -242  0
-192 -243  0
-192 248  0
-192 -252  0
-192 251  0
-192 -246  0
192 242 243 246 -248 -251 252  0
-193 242  0
-193 -243  0
-193 248  0
-193 -252  0
-193 251  0
-193 -246  0
193 -242 243 246 -248 -251 252  0
-194 -242  0
-194 243  0
-194 248  0
-194 -252  0
-194 251  0
-194 -246  0
194 242 -243 246 -248 -251 252  0
-195 242  0
-195 243  0
-195 248  0
-195 -252  0
-195 251  0
-195 -246  0
195 -242 -243 246 -248 -251 252  0
-196 -242  0
-196 -243  0
-196 -248  0
-196 252  0
-196 251  0
-196 -246  0
196 242 243 246 248 -251 -252  0
-197 242  0
-197 -243  0
-197 -248  0
-197 252  0
-197 251  0
-197 -246  0
197 -242 243 246 248 -251 -252  0
-199 -242  0
-199 243  0
-199 -248  0
-199 252  0
-199 251  0
-199 -246  0
199 242 -243 246 248 -251 -252  0
-200 242  0
-200 243  0
-200 -248  0
-200 252  0
-200 251  0
-200 -246  0
200 -242 -243 246 248 -251 -252  0
-201 -242  0
-201 -243  0
-201 248  0
-201 252  0
-201 251  0
-201 -246  0
201 242 243 246 -248 -251 -252  0
-202 242  0
-202 -243  0
-202 248  0
-202 252  0
-202 251  0
-202 -246  0
202 -242 243 246 -248 -251 -252  0
-203 -242  0
-203 243  0
-203 248  0
-203 252  0
-203 251  0
-203 -246  0
203 242 -243 246 -248 -251 -252  0
-204 242  0
-204 243  0
-204 248  0
-204 252  0
-204 251  0
-204 -246  0
204 -242 -243 246 -248 -251 -252  0
-205 -242  0
-205 -243  0
-205 -248  0
-205 -252  0
-205 -251  0
-205 246  0
205 242 243 -246 248 251 252  0
-206 242  0
-206 -243  0
-206 -248  0
-206 -252  0
-206 -251  0
-206 246  0
206 -242 243 -246 248 251 252  0
-207 -242  0
-207 243  0
-207 -248  0
-207 -252  0
-207 -251  0
-207 246  0
207 242 -243 -246 248 251 252  0
-208 242  0
-208 243  0
-208 -248  0
-208 -252  0
-208 -251  0
-208 246  0
208 -242 -243 -246 248 251 252  0
-210 -242  0
-210 -243  0
-210 248  0
-210 -252  0
-210 -251  0
-210 246  0
210 242 243 -246 -248 251 252  0
-211 242  0
-211 -243  0
-211 248  0
-211 -252  0
-211 -251  0
-211 246  0
211 -242 243 -246 -248 251 252  0
-212 -242  0
-212 243  0
-212 248  0
-212 -252  0
-212 -251  0
-212 246  0
212 242 -243 -246 -248 251 252  0
-213 242  0
-213 243  0
-213 248  0
-213 -252  0
-213 -251  0
-213 246  0
213 -242 -243 -246 -248 251 252  0
-214 -242  0
-214 -243  0
-214 -248  0
-214 252  0
-214 -251  0
-214 246  0
214 242 243 -246 248 251 -252  0
-215 242  0
-215 -243  0
-215 -248  0
-215 252  0
-215 -251  0
-215 246  0
215 -242 243 -246 248 251 -252  0
-216 -242  0
-216 243  0
-216 -248  0
-216 252  0
-216 -251  0
-216 246  0
216 242 -243 -246 248 251 -252  0
-217 242  0
-217 243  0
-217 -248  0
-217 252  0
-217 -251  0
-217 246  0
217 -242 -243 -246 248 251 -252  0
-218 -242  0
-218 -243  0
-218 248  0
-218 252  0
-218 -251  0
-218 246  0
218 242 243 -246 -248 251 -252  0
-219 242  0
-219 -243  0
-219 248  0
-219 252  0
-219 -251  0
-219 246  0
219 -242 243 -246 -248 251 -252  0
-221 -242  0
-221 243  0
-221 248  0
-221 252  0
-221 -251  0
-221 246  0
221 242 -243 -246 -248 251 -252  0
-222 242  0
-222 243  0
-222 248  0
-222 252  0
-222 -251  0
-222 246  0
222 -242 -243 -246 -248 251 -252  0
-223 -242  0
-223 -243  0
-223 -248  0
-223 -252  0
-223 251  0
-223 246  0
223 242 243 -246 248 -251 252  0
-224 242  0
-224 -243  0
-224 -248  0
-224 -252  0
-224 251  0
-224 246  0
224 -242 243 -246 248 -251 252  0
-225 -242  0
-225 243  0
-225 -248  0
-225 -252  0
-225 251  0
-225 246  0
225 242 -243 -246 248 -251 252  0
-226 242  0
-226 243  0
-226 -248  0
-226 -252  0
-226 251  0
-226 246  0
226 -242 -243 -246 248 -251 252  0
-227 -242  0
-227 -243  0
-227 248  0
-227 -252  0
-227 251  0
-227 246  0
227 242 243 -246 -248 -251 252  0
-228 242  0
-228 -243  0
-228 248  0
-228 -252  0
-228 251  0
-228 246  0
228 -242 243 -246 -248 -251 252  0
-229 -242  0
-229 243  0
-229 248  0
-229 -252  0
-229 251  0
-229 246  0
229 242 -243 -246 -248 -251 252  0
-230 242  0
-230 243  0
-230 248  0
-230 -252  0
-230 251  0
-230 246  0
230 -242 -243 -246 -248 -251 252  0
-232 -242  0
-232 -243  0
-232 -248  0
-232 252  0
-232 251  0
-232 246  0
232 242 243 -246 248 -251 -252  0
-233 242  0
-233 -243  0
-233 -248  0
-233 252  0
-233 251  0
-233 246  0
233 -242 243 -246 248 -251 -252  0
-234 -242  0
-234 243  0
-234 -248  0
-234 252  0
-234 251  0
-234 246  0
234 242 -243 -246 248 -251 -252  0
-235 242  0
-235 243  0
-235 -248  0
-235 252  0
-235 251  0
-235 246  0
235 -242 -243 -246 248 -251 -252  0
-236 -242  0
-236 -243  0
-236 248  0
-236 252  0
-236 251  0
-236 246  0
236 242 243 -246 -248 -251 -252  0
-237 242  0
-237 -243  0
-237 248  0
-237 252  0
-237 251  0
-237 246  0
237 -242 243 -246 -248 -251 -252  0
-238 -242  0
-238 243  0
-238 248  0
-238 252  0
-238 251  0
-238 246  0
238 242 -243 -246 -248 -251 -252  0
-239 242  0
-239 243  0
-239 248  0
-239 252  0
-239 251  0
-239 246  0
239 -242 -243 -246 -248 -251 -252  0
170 171 172 173 174 175 177 178 179 180 181 182 183 184 185 186 188 189 190 191 192 193 194 195 196 197 199 200 201 202 203 204 205 206 207 208 210 211 212 213 214 215 216 217 218 219 221 222 223 224 225 226 227 228 229 230 232 233 234 235 236 237 238 239  0
-240 -244  0
-240 -245  0
-240 -249  0
-240 -254  0
-240 -253  0
-240 -248  0
240 244 245 248 249 253 254  0
-4 244  0
-4 -245  0
-4 -249  0
-4 -254  0
-4 -253  0
-4 -248  0
4 -244 245 248 249 253 254  0
-5 -244  0
-5 245  0
-5 -249  0
-5 -254  0
-5 -253  0
-5 -248  0
5 244 -245 248 249 253 254  0
-6 244  0
-6 245  0
-6 -249  0
-6 -254  0
-6 -253  0
-6 -248  0
6 -244 -245 248 249 253 254  0
-7 -244  0
-7 -245  0
-7 249  0
-7 -254  0
-7 -253  0
-7 -248  0
7 244 245 248 -249 253 254  0
-8 244  0
-8 -245  0
-8 249  0
-8 -254  0
-8 -253  0
-8 -248  0
8 -244 245 248 -249 253 254  0
-9 -244  0
-9 245  0
-9 249  0
-9 -254  0
-9 -253  0
-9 -248  0
9 244 -245 248 -249 253 254  0
-10 244  0
-10 245  0
-10 249  0
-10 -254  0
-10 -253  0
-10 -248  0
10 -244 -245 248 -249 253 254  0
-11 -244  0
-11 -245  0
-11 -249  0
-11 254  0
-11 -253  0
-11 -248  0
11 244 245 248 249 253 -254  0
-12 244  0
-12 -245  0
-12 -249  0
-12 254  0
-12 -253  0
-12 -248  0
12 -244 245 248 249 253 -254  0
-13 -244  0
-13 245  0
-13 -249  0
-13 254  0
-13 -253  0
-13 -248  0
13 244 -245 248 249 253 -254  0
-15 244  0
-15 245  0
-15 -249  0
-15 254  0
-15 -253  0
-15 -248  0
15 -244 -245 248 249 253 -254  0
-16 -244  0
-16 -245  0
-16 249  0
-16 254  0
-16 -253  0
-16 -248  0
16 244 245 248 -249 253 -254  0
-17 244  0
-17 -245  0
-17 249  0
-17 254  0
-17 -253  0
-17 -248  0
17 -244 245 248 -249 253 -254  0
-18 -244  0
-18 245  0
-18 249  0
-18 254  0
-18 -253  0
-18 -248  0
18 244 -245 248 -249 253 -254  0
-19 244  0
-19 245  0
-19 249  0
-19 254  0
-19 -253  0
-19 -248  0
19 -244 -245 248 -249 253 -254  0
-20 -244  0
-20 -245  0
-20 -249  0
-20 -254  0
-20 253  0
-20 -248  0
20 244 245 248 249 -253 254  0
-21 244  0
-21 -245  0
-21 -249  0
-21 -254  0
-21 253  0
-21 -248  0
21 -244 245 248 249 -253 254  0
-22 -244  0
-22 245  0
-22 -249  0
-22 -254  0
-22 253  0
-22 -248  0
22 244 -245 248 249 -253 254  0
-23 244  0
-23 245  0
-23 -249  0
-23 -254  0
-23 253  0
-23 -248  0
23 -244 -245 248 249 -253 254  0
-24 -244  0
-24 -245  0
-24 249  0
-24 -254  0
-24 253  0
-24 -248  0
24 244 245 248 -249 -253 254  0
-26 244  0
-26 -245  0
-26 249  0
-26 -254  0
-26 253  0
-26 -248  0
26 -244 245 248 -249 -253 254  0
-27 -244  0
-27 245  0
-27 249  0
-27 -254  0
-27 253  0
-27 -248  0
27 244 -245 248 -249 -253 254  0
-28 244  0
-28 245  0
-28 249  0
-28 -254  0
-28 253  0
-28 -248  0
28 -244 -245 248 -249 -253 254  0
-29 -244  0
-29 -245  0
-29 -249  0
-29 254  0
-29 253  0
-29 -248  0
29 244 245 248 249 -253 -254  0
-30 244  0
-30 -245  0
-30 -249  0
-30 254  0
-30 253  0
-30 -248  0
30 -244 245 248 249 -253 -254  0
-31 -244  0
-31 245  0
-31 -249  0
-31 254  0
-31 253  0
-31 -248  0
31 244 -245 248 249 -253 -254  0
-32 244  0
-32 245  0
-32 -249  0
-32 254  0
-32 253  0
-32 -248  0
32 -244 -245 248 249 -253 -254  0
-33 -244  0
-33 -245  0
-33 249  0
-33 254  0
-33 253  0
-33 -248  0
33 244 245 248 -249 -253 -254  0
-34 244  0
-34 -245  0
-34 249  0
-34 254  0
-34 253  0
-34 -248  0
34 -244 245 248 -249 -253 -254  0
-35 -244  0
-35 245  0
-35 249  0
-35 254  0
-35 253  0
-35 -248  0
35 244 -245 248 -249 -253 -254  0
-37 244  0
-37 245  0
-37 249  0
-37 254  0
-37 253  0
-37 -248  0
37 -244 -245 248 -249 -253 -254  0
-38 -244  0
-38 -245  0
-38 -249  0
-38 -254  0
-38 -253  0
-38 248  0
38 244 245 -248 249 253 254  0
-39 244  0
-39 -245  0
-39 -249  0
-39 -254  0
-39 -253  0
-39 248  0
39 -244 245 -248 249 253 254  0
-40 -244  0
-40 245  0
-40 -249  0
-40 -254  0
-40 -253  0
-40 248  0
40 244 -245 -248 249 253 254  0
-41 244  0
-41 245  0
-41 -249  0
-41 -254  0
-41 -253  0
-41 248  0
41 -244 -245 -248 249 253 254  0
-42 -244  0
-42 -245  0
-42 249  0
-42 -254  0
-42 -253  0
-42 248  0
42 244 245 -248 -249 253 254  0
-43 244  0
-43 -245  0
-43 249  0
-43 -254  0
-43 -253  0
-43 248  0
43 -244 245 -248 -249 253 254  0
-44 -244  0
-44 245  0
-44 249  0
-44 -254  0
-44 -253  0
-44 248  0
44 244 -245 -248 -249 253 254  0
-45 244  0
-45 245  0
-45 249  0
-45 -254  0
-45 -253  0
-45 248  0
45 -244 -245 -248 -249 253 254  0
-46 -244  0
-46 -245  0
-46 -249  0
-46 254  0
-46 -253  0
-46 248  0
46 244 245 -248 249 253 -254  0
-48 244  0
-48 -245  0
-48 -249  0
-48 254  0
-48 -253  0
-48 248  0
48 -244 245 -248 249 253 -254  0
-49 -244  0
-49 245  0
-49 -249  0
-49 254  0
-49 -253  0
-49 248  0
49 244 -245 -248 249 253 -254  0
-50 244  0
-50 245  0
-50 -249  0
-50 254  0
-50 -253  0
-50 248  0
50 -244 -245 -248 249 253 -254  0
-51 -244  0
-51 -245  0
-51 249  0
-51 254  0
-51 -253  0
-51 248  0
51 244 245 -248 -249 253 -254  0
-52 244  0
-52 -245  0
-52 249  0
-52 254  0
-52 -253  0
-52 248  0
52 -244 245 -248 -249 253 -254  0
-53 -244  0
-53 245  0
-53 249  0
-53 254  0
-53 -253  0
-53 248  0
53 244 -245 -248 -249 253 -254  0
-54 244  0
-54 245  0
-54 249  0
-54 254  0
-54 -253  0
-54 248  0
54 -244 -245 -248 -249 253 -254  0
-55 -244  0
-55 -245  0
-55 -249  0
-55 -254  0
-55 253  0
-55 248  0
55 244 245 -248 249 -253 254  0
-56 244  0
-56 -245  0
-56 -249  0
-56 -254  0
-56 253  0
-56 248  0
56 -244 245 -248 249 -253 254  0
-57 -244  0
-57 245  0
-57 -249  0
-57 -254  0
-57 253  0
-57 248  0
57 244 -245 -248 249 -253 254  0
-59 244  0
-59 245  0
-59 -249  0
-59 -254  0
-59 253  0
-59 248  0
59 -244 -245 -248 249 -253 254  0
-60 -244  0
-60 -245  0
-60 249  0
-60 -254  0
-60 253  0
-60 248  0
60 244 245 -248 -249 -253 254  0
-61 244  0
-61 -245  0
-61 249  0
-61 -254  0
-61 253  0
-61 248  0
61 -244 245 -248 -249 -253 254  0
-62 -244  0
-62 245  0
-62 249  0
-62 -254  0
-62 253  0
-62 248  0
62 244 -245 -248 -249 -253 254  0
-63 244  0
-63 245  0
-63 249  0
-63 -254  0
-63 253  0
-63 248  0
63 -244 -245 -248 -249 -253 254  0
-64 -244  0
-64 -245  0
-64 -249  0
-64 254  0
-64 253  0
-64 248  0
64 244 245 -248 249 -253 -254  0
-65 244  0
-65 -245  0
-65 -249  0
-65 254  0
-65 253  0
-65 248  0
65 -244 245 -248 249 -253 -254  0
-66 -244  0
-66 245  0
-66 -249  0
-66 254  0
-66 253  0
-66 248  0
66 244 -245 -248 249 -253 -254  0
-67 244  0
-67 245  0
-67 -249  0
-67 254  0
-67 253  0
-67 248  0
67 -244 -245 -248 249 -253 -254  0
-68 -244  0
-68 -245  0
-68 249  0
-68 254  0
-68 253  0
-68 248  0
68 244 245 -248 -249 -253 -254  0
-69 244  0
-69 -245  0
-69 249  0
-69 254  0
-69 253  0
-69 248  0
69 -244 245 -248 -249 -253 -254  0
-70 -244  0
-70 245  0
-70 249  0
-70 254  0
-70 253  0
-70 248  0
70 244 -245 -248 -249 -253 -254  0
-71 244  0
-71 245  0
-71 249  0
-71 254  0
-71 253  0
-71 248  0
71 -244 -245 -248 -249 -253 -254  0
4 5 6 7 8 9 10 11 12 13 15 16 17 18 19 20 21 22 23 24 26 27 28 29 30 31 32 33 34 35 37 38 39 40 41 42 43 44 45 46 48 49 50 51 52 53 54 55 56 57 59 60 61 62 63 64 65 66 67 68 69 70 71 240  0
-72 -246  0
-72 -251  0
-72 -256  0
-72 -255  0
72 246 251 255 256  0
-73 246  0
-73 -251  0
-73 -256  0
-73 -255  0
73 -246 251 255 256  0
-74 -246  0
-74 251  0
-74 -256  0
-74 -255  0
74 246 -251 255 256  0
-75 246  0
-75 251  0
-75 -256  0
-75 -255  0
75 -246 -251 255 256  0
-76 -246  0
-76 -251  0
-76 256  0
-76 -255  0
76 246 251 255 -256  0
-77 246  0
-77 -251  0
-77 256  0
-77 -255  0
77 -246 251 255 -256  0
-79 -246  0
-79 251  0
-79 256  0
-79 -255  0
79 246 -251 255 -256  0
-80 246  0
-80 251  0
-80 256  0
-80 -255  0
80 -246 -251 255 -256  0
-81 -246  0
-81 -251  0
-81 -256  0
-81 255  0
81 246 251 -255 256  0
-82 246  0
-82 -251  0
-82 -256  0
-82 255  0
82 -246 251 -255 256  0
-83 -246  0
-83 251  0
-83 -256  0
-83 255  0
83 246 -251 -255 256  0
-84 246  0
-84 251  0
-84 -256  0
-84 255  0
84 -246 -251 -255 256  0
-85 -246  0
-85 -251  0
-85 256  0
-85 255  0
85 246 251 -255 -256  0
-86 246  0
-86 -251  0
-86 256  0
-86 255  0
86 -246 251 -255 -256  0
-87 -246  0
-87 251  0
-87 256  0
-87 255  0
87 246 -251 -255 -256  0
-88 246  0
-88 251  0
-88 256  0
-88 255  0
88 -246 -251 -255 -256  0
72 73 74 75 76 77 79 80 81 82 83 84 85 86 87 88  0
-90 -246  0
-90 -247  0
-90 -252  0
-90 -257  0
-90 -256  0
-90 -250  0
90 246 247 250 252 256 257  0
-91 246  0
-91 -247  0
-91 -252  0
-91 -257  0
-91 -256  0
-91 -250  0
91 -246 247 250 252 256 257  0
-92 -246  0
-92 247  0
-92 -252  0
-92 -257  0
-92 -256  0
-92 -250  0
92 246 -247 250 252 256 257  0
-93 246  0
-93 247  0
-93 -252  0
-93 -257  0
-93 -256  0
-93 -250  0
93 -246 -247 250 252 256 257  0
-94 -246  0
-94 -247  0
-94 252  0
-94 -257  0
-94 -256  0
-94 -250  0
94 246 247 250 -252 256 257  0
-95 246  0
-95 -247  0
-95 252  0
-95 -257  0
-95 -256  0
-95 -250  0
95 -246 247 250 -252 256 257  0
-96 -246  0
-96 247  0
-96 252  0
-96 -257  0
-96 -256  0
-96 -250  0
96 246 -247 250 -252 256 257  0
-97 246  0
-97 247  0
-97 252  0
-97 -257  0
-97 -256  0
-97 -250  0
97 -246 -247 250 -252 256 257  0
-98 -246  0
-98 -247  0
-98 -252  0
-98 257  0
-98 -256  0
-98 -250  0
98 246 247 250 252 256 -257  0
-100 246  0
-100 -247  0
-100 -252  0
-100 257  0
-100 -256  0
-100 -250  0
100 -246 247 250 252 256 -257  0
-101 -246  0
-101 247  0
-101 -252  0
-101 257  0
-101 -256  0
-101 -250  0
101 246 -247 250 252 256 -257  0
-102 246  0
-102 247  0
-102 -252  0
-102 257  0
-102 -256  0
-102 -250  0
102 -246 -247 250 252 256 -257  0
-103 -246  0
-103 -247  0
-103 252  0
-103 257  0
-103 -256  0
-103 -250  0
103 246 247 250 -252 256 -257  0
-104 246  0
-104 -247  0
-104 252  0
-104 257  0
-104 -256  0
-104 -250  0
104 -246 247 250 -252 256 -257  0
-105 -246  0
-105 247  0
-105 252  0
-105 257  0
-105 -256  0
-105 -250  0
105 246 -247 250 -252 256 -257  0
-106 246  0
-106 247  0
-106 252  0
-106 257  0
-106 -256  0
-106 -250  0
106 -246 -247 250 -252 256 -257  0
-107 -246  0
-107 -247  0
-107 -252  0
-107 -257  0
-107 256  0
-107 -250  0
107 246 247 250 252 -256 257  0
-108 246  0
-108 -247  0
-108 -252  0
-108 -257  0
-108 256  0
-108 -250  0
108 -246 247 250 252 -256 257  0
-109 -246  0
-109 247  0
-109 -252  0
-109 -257  0
-109 256  0
-109 -250  0
109 246 -247 250 252 -256 257  0
-112 246  0
-112 247  0
-112 -252  0
-112 -257  0
-112 256  0
-112 -250  0
112 -246 -247 250 252 -256 257  0
-113 -246  0
-113 -247  0
-113 252  0
-113 -257  0
-113 256  0
-113 -250  0
113 246 247 250 -252 -256 257  0
-114 246  0
-114 -247  0
-114 252  0
-114 -257  0
-114 256  0
-114 -250  0
114 -246 247 250 -252 -256 257  0
-115 -246  0
-115 247  0
-115 252  0
-115 -257  0
-115 256  0
-115 -250  0
115 246 -247 250 -252 -256 257  0
-116 246  0
-116 247  0
-116 252  0
-116 -257  0
-116 256  0
-116 -250  0
116 -246 -247 250 -252 -256 257  0
-117 -246  0
-117 -247  0
-117 -252  0
-117 257  0
-117 256  0
-117 -250  0
117 246 247 250 252 -256 -257  0
-118 246  0
-118 -247  0
-118 -252  0
-118 257  0
-118 256  0
-118 -250  0
118 -246 247 250 252 -256 -257  0
-119 -246  0
-119 247  0
-119 -252  0
-119 257  0
-119 256  0
-119 -250  0
119 246 -247 250 252 -256 -257  0
-120 246  0
-120 247  0
-120 -252  0
-120 257  0
-120 256  0
-120 -250  0
120 -246 -247 250 252 -256 -257  0
-121 -246  0
-121 -247  0
-121 252  0
-121 257  0
-121 256  0
-121 -250  0
121 246 247 250 -252 -256 -257  0
-123 246  0
-123 -247  0
-123 252  0
-123 257  0
-123 256  0
-123 -250  0
123 -246 247 250 -252 -256 -257  0
-124 -246  0
-124 247  0
-124 252  0
-124 257  0
-124 256  0
-124 -250  0
124 246 -247 250 -252 -256 -257  0
-125 246  0
-125 247  0
-125 252  0
-125 257  0
-125 256  0
-125 -250  0
125 -246 -247 250 -252 -256 -257  0
-126 -246  0
-126 -247  0
-126 -252  0
-126 -257  0
-126 -256  0
-126 250  0
126 246 247 -250 252 256 257  0
-127 246  0
-127 -247  0
-127 -252  0
-127 -257  0
-127 -256  0
-127 250  0
127 -246 247 -250 252 256 257  0
-128 -246  0
-128 247  0
-128 -252  0
-128 -257  0
-128 -256  0
-128 250  0
128 246 -247 -250 252 256 257  0
-129 246  0
-129 247  0
-129 -252  0
-129 -257  0
-129 -256  0
-129 250  0
129 -246 -247 -250 252 256 257  0
-130 -246  0
-130 -247  0
-130 252  0
-130 -257  0
-130 -256  0
-130 250  0
130 246 247 -250 -252 256 257  0
-131 246  0
-131 -247  0
-131 252  0
-131 -257  0
-131 -256  0
-131 250  0
131 -246 247 -250 -252 256 257  0
-132 -246  0
-132 247  0
-132 252  0
-132 -257  0
-132 -256  0
-132 250  0
132 246 -247 -250 -252 256 257  0
-134 246  0
-134 247  0
-134 252  0
-134 -257  0
-134 -256  0
-134 250  0
134 -246 -247 -250 -252 256 257  0
-135 -246  0
-135 -247  0
-135 -252  0
-135 257  0
-135 -256  0
-135 250  0
135 246 247 -250 252 256 -257  0
-136 246  0
-136 -247  0
-136 -252  0
-136 257  0
-136 -256  0
-136 250  0
136 -246 247 -250 252 256 -257  0
-137 -246  0
-137 247  0
-137 -252  0
-137 257  0
-137 -256  0
-137 250  0
137 246 -247 -250 252 256 -257  0
-138 246  0
-138 247  0
-138 -252  0
-138 257  0
-138 -256  0
-138 250  0
138 -246 -247 -250 252 256 -257  0
-139 -246  0
-139 -247  0
-139 252  0
-139 257  0
-139 -256  0
-139 250  0
139 246 247 -250 -252 256 -257  0
-140 246  0
-140 -247  0
-140 252  0
-140 257  0
-140 -256  0
-140 250  0
140 -246 247 -250 -252 256 -257  0
-141 -246  0
-141 247  0
-141 252  0
-141 257  0
-141 -256  0
-141 250  0
141 246 -247 -250 -252 256 -257  0
-142 246  0
-142 247  0
-142 252  0
-142 257  0
-142 -256  0
-142 250  0
142 -246 -247 -250 -252 256 -257  0
-143 -246  0
-143 -247  0
-143 -252  0
-143 -257  0
-143 256  0
-143 250  0
143 246 247 -250 252 -256 257  0
-145 246  0
-145 -247  0
-145 -252  0
-145 -257  0
-145 256  0
-145 250  0
145 -246 247 -250 252 -256 257  0
-146 -246  0
-146 247  0
-146 -252  0
-146 -257  0
-146 256  0
-146 250  0
146 246 -247 -250 252 -256 257  0
-147 246  0
-147 247  0
-147 -252  0
-147 -257  0
-147 256  0
-147 250  0
147 -246 -247 -250 252 -256 257  0
-148 -246  0
-148 -247  0
-148 252  0
-148 -257  0
-148 256  0
-148 250  0
148 246 247 -250 -252 -256 257  0
-149 246  0
-149 -247  0
-149 252  0
-149 -257  0
-149 256  0
-149 250  0
149 -246 247 -250 -252 -256 257  0
-150 -246  0
-150 247  0
-150 252  0
-150 -257  0
-150 256  0
-150 250  0
150 246 -247 -250 -252 -256 257  0
-151 246  0
-151 247  0
-151 252  0
-151 -257  0
-151 256  0
-151 250  0
151 -246 -247 -250 -252 -256 257  0
-152 -246  0
-152 -247  0
-152 -252  0
-152 257  0
-152 256  0
-152 250  0
152 246 247 -250 252 -256 -257  0
-153 246  0
-153 -247  0
-153 -252  0
-153 257  0
-153 256  0
-153 250  0
153 -246 247 -250 252 -256 -257  0
-154 -246  0
-154 247  0
-154 -252  0
-154 257  0
-154 256  0
-154 250  0
154 246 -247 -250 252 -256 -257  0
-156 246  0
-156 247  0
-156 -252  0
-156 257  0
-156 256  0
-156 250  0
156 -246 -247 -250 252 -256 -257  0
-157 -246  0
-157 -247  0
-157 252  0
-157 257  0
-157 256  0
-157 250  0
157 246 247 -250 -252 -256 -257  0
-158 246  0
-158 -247  0
-158 252  0
-158 257  0
-158 256  0
-158 250  0
158 -246 247 -250 -252 -256 -257  0
-159 -246  0
-159 247  0
-159 252  0
-159 257  0
-159 256  0
-159 250  0
159 246 -247 -250 -252 -256 -257  0
-160 246  0
-160 247  0
-160 252  0
-160 257  0
-160 256  0
-160 250  0
160 -246 -247 -250 -252 -256 -257  0
90 91 92 93 94 95 96 97 98 100 101 102 103 104 105 106 107 108 109 112 113 114 115 116 117 118 119 120 121 123 124 125 126 127 128 129 130 131 132 134 135 136 137 138 139 140 141 142 143 145 146 147 148 149 150 151 152 153 154 156 157 158 159 160  0
241  0
